50

94 14 294
92 17 362
89 33 318
88 18 341
88 43 287
87 15 326
86 21 310
84 17 305
82 40 340
82 16 394
81 28 286
79 22 277
77 36 231
77 18 236
77 26 377
76 28 392
73 2 336
72 10 219
70 14 389
69 23 339
68 21 382
68 25 273
65 8 288
63 20 316
63 11 228
61 27 215
59 6 265
58 26 203
57 26 268
55 20 384
54 7 287
52 11 353
52 4 216
52 19 211
51 21 318
48 15 253
46 10 380
43 17 223
40 4 291
38 3 226
37 15 227
37 17 361
36 5 392
35 3 349
35 17 339
35 6 330
34 9 197
34 15 140
34 14 238
33 2 248
